c Random generated cnf formula, satisfiable: false
p cnf 10 50
7 9 1 0
7 9 -8 0
-5 10 9 0
-3 7 5 0
-1 -7 -8 0
-8 3 6 0
2 -4 -1 0
8 -2 -10 0
8 -9 10 0
10 2 1 0
9 -10 6 0
-1 9 10 0
3 6 -9 0
6 -1 -10 0
-2 -7 9 0
1 -9 -6 0
-4 -2 5 0
-6 -1 7 0
-7 -4 1 0
-6 -4 -3 0
-7 -4 -10 0
10 9 4 0
5 -2 8 0
-5 2 1 0
7 -1 -10 0
-5 3 -1 0
-5 1 10 0
-9 10 -8 0
-1 2 -5 0
7 1 -10 0
-9 -2 5 0
5 4 3 0
-5 1 -7 0
5 2 -7 0
6 4 -1 0
6 -7 2 0
-9 -4 -1 0
-4 8 5 0
10 2 3 0
-8 -10 -4 0
7 2 -8 0
5 -2 -8 0
-10 -1 5 0
2 -5 -7 0
7 -1 2 0
1 3 9 0
-7 -10 6 0
-2 -8 1 0
9 -1 8 0
-7 10 8 0
